9,1,5,2,7,2,1,1,10,2,8,2,4,3,2,1,3,2,6,7;7,1,10,1,1,2,3,1,2,6;5,1,6,1,10,3,1,3,2,2,3,4;7,3,9,3,6,4,2,5,8,10;5,6,1,5,4,4,8,5,2,3,6,9,10,9,9,9,7,10,3,10;5,4,6,3,7,6,9,4,1,6,8,4,10,7,3,6,2,8,4,10;7,5,10,4,1,7,9,7,4,5,8,6,6,8,2,7,3,8,5,10;5,8,1,8,9,8,4,7,8,9,3,7,7,9,6,10,2,9,10,10;10,5,5,7,6,5,7,8,4,6,8,7,3,5,1,9,9,10,2,10;7,7,10,6,9,6,6,6,2,4,8,8,5,9,4,9,3,9,1,10;5,5,1,4,3,3,10,8,4,8;8,1,4,2,7,4,9,5;4,1,5,3,6,2,9,2,8,3;
